Route #1: 70 76 50 45 22 4 32 58
Route #2: 42 36 67 66 38 73 49
Route #3: 77 60 64 46 25 41 55 9 54 72
Route #4: 53 33 15 47 56 69 65 35 26 19 57 75 20 27
Route #5: 51 3 39 31 17 29 74
Route #6: 23 24 6 30 59 44 12
Route #7: 5 78 61 16 43 68 8 37 2 34
Route #8: 13 62 63 71 10 7
Route #9: 14 48 18 79 28 52 11
Route #10: 40 21 1
Cost 1780
Time 0.231437
